<number of tasks>
50

<cycle time>
1000

<order strength>
0.896


<task times>
1 383
2 276
3 600
4 645
5 544
6 610
7 324
8 486
9 397
10 763
11 514
12 450
13 528
14 624
15 615
16 514
17 413
18 572
19 579
20 563
21 417
22 524
23 385
24 320
25 553
26 658
27 396
28 468
29 742
30 464
31 180
32 542
33 546
34 625
35 620
36 610
37 349
38 524
39 532
40 515
41 779
42 440
43 594
44 461
45 597
46 401
47 267
48 696
49 630
50 583

<precedence relations>
1,3
1,4
1,5
2,3
2,4
2,5
3,6
3,7
3,8
3,9
4,6
4,7
4,8
4,9
5,6
5,7
5,8
5,9
6,10
6,11
6,12
7,10
7,11
7,12
8,10
8,11
8,12
9,10
9,11
9,12
10,13
10,14
11,13
11,14
12,13
12,14
13,15
13,16
14,15
14,16
15,17
15,18
15,19
16,17
16,18
16,19
17,20
17,21
17,22
18,20
18,21
18,22
19,20
19,21
19,22
20,23
20,24
20,25
20,26
21,23
21,24
21,25
21,26
22,23
22,24
22,25
22,26
23,27
23,28
23,29
24,27
24,28
24,29
25,27
25,28
25,29
26,27
26,28
27,30
27,31
28,40
29,30
29,32
29,33
30,34
31,34
32,34
33,43
34,35
34,36
35,37
35,38
35,39
36,50
37,40
37,41
37,42
38,40
38,41
38,42
39,44
40,44
41,43
41,45
41,48
44,45
44,46
44,47
44,48
45,49
46,50

<end>
